c FILE /home/rafael/Documents/HappySet/MIHS/inputs/happygen/output/graph_d_regular_k5_p0.2_v50_20241127_082629.txt
c SOURCE This is a d-regular graph formed for the happy graph colouring problem.
c DESCRIPTION It was generated using the problem generator of Rhyd Lewis
c
c GRAPH STATS
c Seed                             = -184703896
c Number of Nodes                  = 50
c Number of colours k              = 5
c Number of pre-assignments        = 10
c Degree of all vertices           = 6
c Density                          = 0.122449
c 
c The degrees of nodes 1 to 50, respectively, are as follows 
c [6, 6, 6, 6, 6, 6, 6, 6, 6, 6, 6, 6, 6, 6, 6, 6, 6, 6, 6, 6, 6, 6, 6, 6, 6, 6, 
c  6, 6, 6, 6, 6, 6, 6, 6, 6, 6, 6, 6, 6, 6, 6, 6, 6, 6, 6, 6, 6, 6, 6, 6] 
c  
p edge 50 150 5
e 1 3
e 1 24
e 1 33
e 1 40
e 1 43
e 1 48
e 2 4
e 2 13
e 2 16
e 2 29
e 2 32
e 2 38
e 3 8
e 3 10
e 3 17
e 3 24
e 3 29
e 4 6
e 4 13
e 4 17
e 4 29
e 4 36
e 5 11
e 5 20
e 5 22
e 5 33
e 5 37
e 5 41
e 6 16
e 6 21
e 6 30
e 6 35
e 6 38
e 7 9
e 7 22
e 7 33
e 7 39
e 7 42
e 7 48
e 8 11
e 8 15
e 8 18
e 8 24
e 8 46
e 9 23
e 9 24
e 9 32
e 9 47
e 9 49
e 10 20
e 10 26
e 10 27
e 10 31
e 10 41
e 11 13
e 11 22
e 11 28
e 11 46
e 12 19
e 12 20
e 12 24
e 12 28
e 12 31
e 12 45
e 13 15
e 13 17
e 13 38
e 14 16
e 14 27
e 14 31
e 14 42
e 14 47
e 14 50
e 15 27
e 15 30
e 15 35
e 15 43
e 16 32
e 16 36
e 16 43
e 17 26
e 17 30
e 17 47
e 18 19
e 18 38
e 18 40
e 18 42
e 18 48
e 19 32
e 19 39
e 19 49
e 19 50
e 20 41
e 20 46
e 20 50
e 21 29
e 21 31
e 21 40
e 21 41
e 21 44
e 22 28
e 22 44
e 22 49
e 23 25
e 23 29
e 23 33
e 23 34
e 23 40
e 24 40
e 25 36
e 25 39
e 25 42
e 25 45
e 25 47
e 26 27
e 26 32
e 26 38
e 26 39
e 27 35
e 27 44
e 28 30
e 28 36
e 28 40
e 29 41
e 30 34
e 30 46
e 31 33
e 31 36
e 32 48
e 33 50
e 34 37
e 34 41
e 34 44
e 34 47
e 35 37
e 35 43
e 35 45
e 36 49
e 37 39
e 37 48
e 37 50
e 38 47
e 39 44
e 42 48
e 42 49
e 43 44
e 43 45
e 45 46
e 45 49
e 46 50
n 5 2
n 7 4
n 10 5
n 18 4
n 26 5
n 28 4
n 35 2
n 37 2
n 46 3
n 49 1
